NAME: random30
TYPE: TSP
COMMENT: random graph with 30 nodes
DIMENSION: 30
EDGE_WEIGHT_TYPE: EUC_2D
NODE_COORD_SECTION
1 0.463422 77.491046
2 81.730322 86.869471
3 8.443585 39.978265
4 25.987040 80.006848
5 43.141383 91.064759
6 18.184703 26.380292
7 14.553898 13.606856
8 86.929221 57.970459
9 54.986020 14.495480
10 85.303112 62.205513
11 35.095238 51.324954
12 40.180803 7.596669
13 23.991615 12.331893
14 18.390779 23.995253
15 41.726707 4.965443
16 90.271611 94.478719
17 49.086409 48.925264
18 33.771941 90.005385
19 36.924678 11.120276
20 78.025207 38.973884
21 24.169129 40.391215
22 9.645453 13.197329
23 94.205059 95.613454
24 57.520860 5.977954
25 23.477991 35.315857
26 82.119404 1.540344
27 4.302380 16.899003
28 64.911547 73.172239
29 64.774596 45.092371
30 54.700889 29.632081
EOF
